W=8;
H=7;

MAX_TIME=35;
MAX_TRACKS=17;
SEMAPHORE_SUPPLY=2;

TARGET=(3,8);

TRAINS=[(3,2,RIGHT),(2,1,RIGHT),(4,5,RIGHT)];
DECOYS=[];

INIT_POS=[
(1,3,ROCK),
(1,5,STRAIGHT_RL),
(2,1,STRAIGHT_RL),
(2,5,ROCK),
(2,6,STRAIGHT_TD),
(3,2,STRAIGHT_RL),
(3,5,ROCK),
(3,8,STRAIGHT_RL),
(4,5,STRAIGHT_RL),
(6,6,ROCK),
(7,2,STRAIGHT_RL),
(7,6,STRAIGHT_RL),
(7,7,STRAIGHT_RL),
];
TUNNEL_PAIRS=[
  (1, 4, RIGHT, 7, 1, RIGHT),
  (1, 1, RIGHT, 7, 8, LEFT),
];

GATES=[
(7,2,1,false),
(7,7,1,false),
];
ACTIVATIONS=[
(2,6,1),
];

DSWITCHES=[];
STATIONS=[
  (1,5,3),
  (7,6,2),
];
